
  22   10
  10   10   10   10   10   10   10   10   10   10

   0   0   0   0   0   0   0   0   0   0   0   3 2 3 7 
  10  10  10  10  10  10  10  10  10  10  10   3 14 8 4 
   4  10  10  10  10  10  10  10  10  10  10   5 17 14 11 10 9 
   2  10  10  10  10  10  10  10  10  10  10   3 13 10 5 
   4  10  10  10  10  10  10  10  10  10  10   1 6 
   6  10  10  10  10  10  10  10  10  10  10   2 17 9 
   6  10  10  10  10  10  10  10  10  10  10   2 13 8 
   4  10  10  10  10  10  10  10  10  10  10   2 19 15 
   1  10  10  10  10  10  10  10  10  10  10   1 12 
   8  10  10  10  10  10  10  10  10  10  10   1 12 
   1  10  10  10  10  10  10  10  10  10  10   1 13 
   2  10  10  10  10  10  10  10  10  10  10   1 15 
   8  10  10  10  10  10  10  10  10  10  10   1 15 
   5  10  10  10  10  10  10  10  10  10  10   2 19 18 
   5  10  10  10  10  10  10  10  10  10  10   1 16 
   1  10  10  10  10  10  10  10  10  10  10   2 20 18 
  10  10  10  10  10  10  10  10  10  10  10   2 21 19 
   1  10  10  10  10  10  10  10  10  10  10   1 21 
  10  10  10  10  10  10  10  10  10  10  10   1 20 
   8  10  10  10  10  10  10  10  10  10  10   1 22
   9  10  10  10  10  10  10  10  10  10  10   1 22
   0   0   0   0   0   0   0   0   0   0   0   0 
